(declare-fun temp89917_1 () (_ BitVec 64))
(declare-fun temp89917_2 () (_ BitVec 64))
(declare-fun var77740 () (_ BitVec 64))
(declare-fun k!0 () Bool)
(declare-fun ARGNAME_filter_NAMEEND_DIM () (_ BitVec 64))
(declare-fun ARGNAME_data_format_NAMEEND_STRFMT () (_ BitVec 64))
(declare-fun temp89917_3 () (_ BitVec 64))
(declare-fun ARGNAME_out_backprop_NAMEEND_DIM () (_ BitVec 64))
(declare-fun var77770 () (_ BitVec 64))
(declare-fun temp89917_4 () (_ BitVec 64))
(declare-fun temp89917_5 () (_ BitVec 64))
(declare-fun ARGNAME_filter_NAMEEND_DIMSIZE
             ()
             (Array (_ BitVec 64) (_ BitVec 64)))
(declare-fun temp89917_6 () (_ BitVec 64))
(declare-fun temp89917_7 () (_ BitVec 64))
(declare-fun temp89917_8 () (_ BitVec 64))
(declare-fun temp89917_9 () (_ BitVec 64))
(declare-fun temp89917_10 () (_ BitVec 64))
(declare-fun temp89917_11 () (_ BitVec 64))
(declare-fun temp89917_12 () (_ BitVec 64))
(declare-fun temp89917_13 () (_ BitVec 64))
(declare-fun temp89917_14 () (_ BitVec 64))
(declare-fun temp89917_15 () (_ BitVec 64))
(declare-fun temp89917_16 () (_ BitVec 64))
(declare-fun temp89917_17 () (_ BitVec 64))
(declare-fun temp89917_18 () (_ BitVec 64))
(declare-fun var77799 () (_ BitVec 64))
(declare-fun temp89917_19 () (_ BitVec 64))
(declare-fun ARGNAME_out_backprop_NAMEEND_DIMSIZE
             ()
             (Array (_ BitVec 64) (_ BitVec 64)))
(declare-fun temp89917_20 () (_ BitVec 64))
(declare-fun temp89917_21 () (_ BitVec 64))
(declare-fun temp89917_22 () (_ BitVec 64))
(declare-fun temp89917_23 () (_ BitVec 64))
(declare-fun temp89917_24 () (_ BitVec 64))
(declare-fun temp89917_25 () (_ BitVec 64))
(declare-fun temp89917_26 () (_ BitVec 64))
(declare-fun temp89917_27 () (_ BitVec 64))
(declare-fun temp89917_28 () (_ BitVec 64))
(declare-fun temp89917_29 () (_ BitVec 64))
(declare-fun temp89917_30 () (_ BitVec 64))
(declare-fun temp89917_31 () (_ BitVec 64))
(declare-fun temp89917_32 () (_ BitVec 64))
(declare-fun var77832 () (_ BitVec 64))
(declare-fun temp89917_33 () (_ BitVec 64))
(declare-fun temp89917_34 () (_ BitVec 64))
(declare-fun var77833 () (_ BitVec 64))
(declare-fun var77834 () (_ BitVec 64))
(declare-fun temp89917_35 () (_ BitVec 64))
(declare-fun temp89917_36 () (_ BitVec 64))
(declare-fun var275510 () (_ BitVec 64))
(declare-fun temp89917_37 () (_ BitVec 64))
(declare-fun var275528 () (_ BitVec 64))
(declare-fun temp89917_38 () (_ BitVec 64))
(declare-fun temp89917_40 () (_ BitVec 64))
(declare-fun temp89917_39 () (_ BitVec 64))
(declare-fun temp89917_41 () (_ BitVec 64))
(declare-fun var472118 () (_ BitVec 64))
(declare-fun temp89917_42 () (_ BitVec 64))
(declare-fun var472136 () (_ BitVec 64))
(declare-fun temp89917_43 () (_ BitVec 64))
(declare-fun temp89917_45 () (_ BitVec 64))
(declare-fun temp89917_44 () (_ BitVec 64))
(declare-fun temp89917_47 () (_ BitVec 64))
(declare-fun temp89917_46 () (_ BitVec 64))
(declare-fun temp89917_48 () (_ BitVec 64))
(declare-fun var603190 () (_ BitVec 64))
(declare-fun temp89917_49 () (_ BitVec 64))
(declare-fun var603208 () (_ BitVec 64))
(declare-fun temp89917_50 () (_ BitVec 64))
(declare-fun temp89917_52 () (_ BitVec 64))
(declare-fun temp89917_51 () (_ BitVec 64))
(declare-fun temp89917_54 () (_ BitVec 64))
(declare-fun temp89917_53 () (_ BitVec 64))
(declare-fun temp89917_56 () (_ BitVec 64))
(declare-fun temp89917_55 () (_ BitVec 64))
(declare-fun temp89917_58 () (_ BitVec 64))
(declare-fun temp89917_57 () (_ BitVec 64))
(declare-fun temp89917_59 () (_ BitVec 64))
(declare-fun var1123378 () (_ BitVec 64))
(declare-fun temp89917_60 () (_ BitVec 64))
(declare-fun var1188914 () (_ BitVec 64))
(declare-fun temp89917_61 () (_ BitVec 64))
(declare-fun var1254450 () (_ BitVec 64))
(declare-fun temp89917_63 () (_ BitVec 64))
(declare-fun temp89917_62 () (_ BitVec 64))
(declare-fun temp89917_65 () (_ BitVec 64))
(declare-fun temp89917_64 () (_ BitVec 64))
(declare-fun temp89917_66 () (_ BitVec 64))
(declare-fun var78544 () (_ BitVec 64))
(declare-fun temp89917_67 () (_ BitVec 64))
(declare-fun var78545 () (_ BitVec 64))
(assert (or (= ARGNAME_data_format_NAMEEND_STRFMT #x0000000000000000)
    (= ARGNAME_data_format_NAMEEND_STRFMT #x0000000000000001)
    (= ARGNAME_data_format_NAMEEND_STRFMT #x0000000000000002)
    (= ARGNAME_data_format_NAMEEND_STRFMT #x0000000000000003)
    (= ARGNAME_data_format_NAMEEND_STRFMT #x0000000000000004)
    (= ARGNAME_data_format_NAMEEND_STRFMT #x0000000000000005)))
(assert (= temp89917_1 #x0000000000000005))
(assert (= var77740
   (ite (= ARGNAME_filter_NAMEEND_DIM temp89917_1)
        #x0000000000000001
        #x0000000000000000)))
(assert (= temp89917_2 #x0000000000000001))
(assert (= var77740 temp89917_2))
(assert (= temp89917_3 #x0000000000000005))
(assert (= var77770
   (ite (= ARGNAME_out_backprop_NAMEEND_DIM temp89917_3)
        #x0000000000000001
        #x0000000000000000)))
(assert (= temp89917_4 #x0000000000000001))
(assert (= var77770 temp89917_4))
(assert (= temp89917_5 #x0000000000000000))
(assert (= temp89917_6 (select ARGNAME_filter_NAMEEND_DIMSIZE temp89917_5)))
(assert (= temp89917_7 #x0000000000000001))
(assert (= temp89917_8 (select ARGNAME_filter_NAMEEND_DIMSIZE temp89917_7)))
(assert (= temp89917_9 #x0000000000000002))
(assert (= temp89917_10 (select ARGNAME_filter_NAMEEND_DIMSIZE temp89917_9)))
(assert (= temp89917_11 #x0000000000000003))
(assert (= temp89917_12 (select ARGNAME_filter_NAMEEND_DIMSIZE temp89917_11)))
(assert (= temp89917_13 #x0000000000000004))
(assert (= temp89917_14 (select ARGNAME_filter_NAMEEND_DIMSIZE temp89917_13)))
(assert (= temp89917_15 #x0000000000000005))
(assert (= temp89917_16 (select ARGNAME_filter_NAMEEND_DIMSIZE temp89917_15)))
(assert (= temp89917_17 #x0000000000000003))
(assert (= temp89917_18 (select ARGNAME_filter_NAMEEND_DIMSIZE temp89917_17)))
(assert (= var77799 temp89917_18))
(assert (= temp89917_19 #x0000000000000000))
(assert (= temp89917_20 (select ARGNAME_out_backprop_NAMEEND_DIMSIZE temp89917_19)))
(assert (= temp89917_21 #x0000000000000001))
(assert (= temp89917_22 (select ARGNAME_out_backprop_NAMEEND_DIMSIZE temp89917_21)))
(assert (= temp89917_23 #x0000000000000002))
(assert (= temp89917_24 (select ARGNAME_out_backprop_NAMEEND_DIMSIZE temp89917_23)))
(assert (= temp89917_25 #x0000000000000003))
(assert (= temp89917_26 (select ARGNAME_out_backprop_NAMEEND_DIMSIZE temp89917_25)))
(assert (= temp89917_27 #x0000000000000004))
(assert (= temp89917_28 (select ARGNAME_out_backprop_NAMEEND_DIMSIZE temp89917_27)))
(assert (= temp89917_29 #x0000000000000005))
(assert (= temp89917_30 (select ARGNAME_out_backprop_NAMEEND_DIMSIZE temp89917_29)))
(assert (= temp89917_31 #x0000000000000004))
(assert (= temp89917_32 (select ARGNAME_out_backprop_NAMEEND_DIMSIZE temp89917_31)))
(assert (= var77832 temp89917_32))
(assert (= temp89917_33 #x0000000000000004))
(assert (= temp89917_34 (select ARGNAME_filter_NAMEEND_DIMSIZE temp89917_33)))
(assert (= var77833 temp89917_34))
(assert (= var77834 (ite (= var77832 var77833) #x0000000000000001 #x0000000000000000)))
(assert (= temp89917_35 #x0000000000000001))
(assert (= var77834 temp89917_35))
(assert (= temp89917_36 #x0000000000000001))
(assert (= var275510 temp89917_36))
(assert (= temp89917_37 #x0000000000000001))
(assert (= var275528
   (ite (bvslt var275510 temp89917_37) #x0000000000000001 #x0000000000000000)))
(assert (= temp89917_38 #x0000000000000000))
(assert (= var275528 temp89917_38))
(assert (= temp89917_40 #x0000000000000000))
(assert (= temp89917_39 temp89917_40))
(assert (= temp89917_41 #x0000000000000001))
(assert (= var472118 temp89917_41))
(assert (= temp89917_42 #x0000000000000001))
(assert (= var472136
   (ite (bvslt var472118 temp89917_42) #x0000000000000001 #x0000000000000000)))
(assert (= temp89917_43 #x0000000000000000))
(assert (= var472136 temp89917_43))
(assert (= temp89917_45 #x0000000000000000))
(assert (= temp89917_44 temp89917_45))
(assert (= temp89917_47 #x0000000000000000))
(assert (= temp89917_46 temp89917_47))
(assert (= temp89917_48 #x0000000000000001))
(assert (= var603190 temp89917_48))
(assert (= temp89917_49 #x0000000000000001))
(assert (= var603208
   (ite (bvslt var603190 temp89917_49) #x0000000000000001 #x0000000000000000)))
(assert (= temp89917_50 #x0000000000000000))
(assert (= var603208 temp89917_50))
(assert (= temp89917_52 #x0000000000000000))
(assert (= temp89917_51 temp89917_52))
(assert (= temp89917_54 #x00000000000000ff))
(assert (= temp89917_53 temp89917_54))
(assert (= temp89917_56 #x00000000000000ff))
(assert (= temp89917_55 temp89917_56))
(assert (= temp89917_58 #x00000000000000ff))
(assert (= temp89917_57 temp89917_58))
(assert (= temp89917_59 #x0000000000008000))
(assert (= var1123378 temp89917_59))
(assert (= temp89917_60 #x0000000000040000))
(assert (= var1188914 temp89917_60))
(assert (= temp89917_61 #x0000000000200000))
(assert (= var1254450 temp89917_61))
(assert (= temp89917_63 #x0000000000000001))
(assert (= temp89917_62 temp89917_63))
(assert (= temp89917_65 #x0000000000000001))
(assert (= temp89917_64 temp89917_65))
(assert (= temp89917_66 #x0000000000000000))
(assert (= var78544 temp89917_66))
(assert (= temp89917_67 #x0000000000000001))
(assert (= var78545 (bvadd var78544 temp89917_67)))
(model-add temp89917_1 () (_ BitVec 64) #x0000000000000005)
(model-add temp89917_2 () (_ BitVec 64) #x0000000000000001)
(model-add var77740 () (_ BitVec 64) #x0000000000000001)
(model-del k!0)
(model-add ARGNAME_filter_NAMEEND_DIM
           ()
           (_ BitVec 64)
           (ite k!0 #x0000000000000005 (bvnot #x0000000000000005)))


